QPLIB_2708
LGQ
minimize
634 # number of variables
357 # number of constraints
0.0 # default value for linear coefficients in objective
7 # number of non-default linear coefficients in objective
1 8000.0
2 8000.0
3 320.0
4 53.6
23 1680.0
24 950.0
25 1260.0
0.0 # objective constant
201 # number of quadratic terms in all constraints
328 1 1 2.0
328 1 1 2.0
328 1 1 2.0
328 1 1 2.0
328 1 1 2.0
328 1 1 2.0
328 1 1 2.0
329 12731409 1 2.0
329 12731409 1 2.0
329 12731409 1 2.0
329 12731409 1 2.0
329 12731409 1 2.0
329 12731409 1 2.0
329 12731409 1 2.0
330 1 1 2.0
330 1 1 2.0
330 1 1 2.0
330 1 1 2.0
330 1 1 2.0
330 1 1 2.0
330 1 1 2.0
331 34 1 2.0
331 34 1 2.0
331 34 1 2.0
331 34 1 2.0
331 34 1 2.0
331 34 1 2.0
331 34 1 2.0
332 1 1 2.0
332 1 1 2.0
332 1 1 2.0
332 1 1 2.0
332 1 1 2.0
332 1 1 2.0
332 1 1 2.0
333 1 -885552959 2.0
333 1 -885552959 2.0
333 1 -885552959 2.0
333 1 -885552959 2.0
333 1 -885552959 2.0
333 1 -885552959 2.0
333 1 -885552959 2.0
334 32729 1 2.0
334 32729 1 2.0
334 32729 1 2.0
334 32729 1 2.0
334 32729 1 2.0
334 32729 1 2.0
334 32729 1 2.0
335 12692385 1 2.0
335 12692385 1 2.0
335 12692385 1 2.0
335 12692385 1 2.0
335 12692385 1 2.0
335 12692385 1 2.0
335 12692385 1 2.0
336 1 1 2.0
336 1 1 2.0
336 1 1 2.0
336 1 1 2.0
336 1 1 2.0
336 1 1 2.0
336 1 1 2.0
337 1 1 2.0
337 1 1 2.0
337 1 1 2.0
337 1 1 2.0
337 1 1 2.0
337 1 1 2.0
337 1 1 2.0
338 1 1 2.0
338 1 1 2.0
338 1 1 2.0
338 1 1 2.0
338 1 1 2.0
338 1 1 2.0
338 1 1 2.0
339 34 1 2.0
339 34 1 2.0
339 34 1 2.0
339 34 1 2.0
339 34 1 2.0
339 34 1 2.0
339 34 1 2.0
340 1 1 2.0
340 1 1 2.0
340 1 1 2.0
340 1 1 2.0
340 1 1 2.0
340 1 1 2.0
340 1 1 -2.0
341 -2147483648 1 2.0
341 -2147483648 1 2.0
341 -2147483648 1 2.0
341 -2147483648 1 2.0
341 -2147483648 1 2.0
341 -2147483648 1 2.0
341 -2147483648 1 -2.0
342 -2147483648 1 2.0
342 -2147483648 1 2.0
342 -2147483648 1 2.0
342 -2147483648 1 2.0
342 -2147483648 1 2.0
342 -2147483648 1 2.0
342 -2147483648 1 -2.0
343 1 1 -2.0
343 1 1 2.0
343 1 1 2.0
343 1 1 2.0
343 1 1 2.0
343 1 1 2.0
343 1 1 2.0
343 1 1 2.0
344 1 1 2.0
344 1 1 2.0
344 1 1 2.0
344 1 1 2.0
344 1 1 2.0
344 1 1 2.0
344 1 1 -2.0
345 1 1 2.0
345 1 1 2.0
345 1 1 2.0
345 1 1 2.0
345 1 1 2.0
345 1 1 2.0
345 1 1 -2.0
346 1 1 2.0
346 1 1 2.0
346 1 1 2.0
346 1 1 2.0
346 1 1 2.0
346 1 1 2.0
346 1 1 -2.0
347 1458 1 -2.0
347 1458 1 2.0
347 1458 1 2.0
347 1458 1 2.0
347 1458 1 2.0
347 1458 1 2.0
347 1458 1 2.0
347 1458 1 2.0
348 1 1 2.0
348 1 1 2.0
348 1 1 2.0
348 1 1 2.0
348 1 1 2.0
348 1 1 2.0
348 1 1 -2.0
349 1 1 2.0
349 1 1 2.0
349 1 1 2.0
349 1 1 2.0
349 1 1 2.0
349 1 1 2.0
349 1 1 -2.0
350 1 1 2.0
350 1 1 2.0
350 1 1 2.0
350 1 1 2.0
350 1 1 2.0
350 1 1 2.0
350 1 1 -2.0
351 1 1 -2.0
351 1 1 2.0
351 1 1 2.0
351 1 1 2.0
351 1 1 2.0
351 1 1 2.0
351 1 1 2.0
351 1 1 2.0
352 1 1 -2.0
352 1 1 -1.9
353 1 1 -2.0
353 1 1 -1.9
354 1 1 -2.0
354 1 1 -1.9
355 1 1 2.0
355 1 1 2.0
355 1 1 2.0
355 1 1 2.0
355 1 1 2.0
355 1 1 2.0
355 1 1 2.0
355 1 1 2.0
356 1 1 2.0
356 1 1 2.0
356 1 1 2.0
356 1 1 2.0
356 1 1 2.0
356 1 1 2.0
356 1 1 2.0
356 1 1 2.0
357 1 1 2.0
357 1 1 2.0
357 1 1 2.0
357 1 1 2.0
357 1 1 2.0
357 1 1 2.0
357 1 1 2.0
357 1 1 2.0
953 # number of linear terms in all constraints
1 26 1.0
1 27 1.0
1 28 1.0
1 29 1.0
2 30 1.0
2 31 1.0
2 32 1.0
2 33 1.0
3 34 1.0
3 35 1.0
3 36 1.0
3 37 1.0
4 38 -1.0
4 39 1.0
4 40 1.0
5 41 -1.0
5 42 1.0
5 43 1.0
6 44 -1.0
6 45 1.0
6 46 1.0
7 47 -1.0
7 48 1.0
7 49 1.0
8 50 -1.0
8 51 1.0
8 52 1.0
9 53 -1.0
9 54 1.0
9 55 1.0
10 56 -1.0
10 57 1.0
10 58 1.0
11 59 -1.0
11 60 1.0
11 61 1.0
12 62 -1.0
12 63 1.0
12 64 1.0
13 65 -1.0
13 66 1.0
13 67 1.0
14 68 -1.0
14 69 1.0
14 70 1.0
15 71 -1.0
15 72 1.0
15 73 1.0
16 74 -1.0
16 75 1.0
16 76 1.0
17 77 -1.0
17 78 1.0
17 79 1.0
18 80 -1.0
18 81 1.0
18 82 1.0
19 83 -1.0
19 84 1.0
19 85 1.0
20 86 -1.0
20 87 1.0
20 88 1.0
21 89 -1.0
21 90 1.0
21 91 1.0
22 92 -1.0
22 93 1.0
22 94 1.0
23 95 -1.0
23 96 1.0
23 97 1.0
24 98 -1.0
24 99 1.0
24 100 1.0
25 101 -1.0
25 102 1.0
25 103 1.0
26 104 -1.0
26 105 1.0
26 106 1.0
27 107 -1.0
27 108 1.0
27 109 1.0
28 26 -1.0
28 110 1.0
28 111 1.0
29 27 -1.0
29 112 1.0
29 113 1.0
30 28 -1.0
30 114 1.0
30 115 1.0
31 29 -1.0
31 116 1.0
31 117 1.0
32 118 -1.0
32 119 1.0
32 120 1.0
33 121 -1.0
33 122 1.0
33 123 1.0
34 124 -1.0
34 125 1.0
34 126 1.0
35 127 -1.0
35 128 1.0
35 129 1.0
36 130 -1.0
36 131 1.0
36 132 1.0
37 133 -1.0
37 134 1.0
37 135 1.0
38 136 -1.0
38 137 1.0
38 138 1.0
39 139 -1.0
39 140 1.0
39 141 1.0
40 142 -1.0
40 143 1.0
40 144 1.0
41 145 -1.0
41 146 1.0
41 147 1.0
42 148 -1.0
42 149 1.0
42 150 1.0
43 151 -1.0
43 152 1.0
43 153 1.0
44 154 -1.0
44 155 1.0
44 156 1.0
45 157 -1.0
45 158 1.0
45 159 1.0
46 160 -1.0
46 161 1.0
46 162 1.0
47 163 -1.0
47 164 1.0
47 165 1.0
48 166 -1.0
48 167 1.0
48 168 1.0
49 169 -1.0
49 170 1.0
49 171 1.0
50 172 -1.0
50 173 1.0
50 174 1.0
51 175 -1.0
51 176 1.0
51 177 1.0
52 178 -1.0
52 179 1.0
52 180 1.0
53 181 -1.0
53 182 1.0
53 183 1.0
54 184 -1.0
54 185 1.0
54 186 1.0
55 187 -1.0
55 188 1.0
55 189 1.0
56 190 -1.0
56 191 1.0
56 192 1.0
57 193 -1.0
57 194 1.0
57 195 1.0
58 196 -1.0
58 197 1.0
58 198 1.0
59 199 -1.0
59 200 1.0
59 201 1.0
60 202 -1.0
60 203 1.0
60 204 1.0
61 205 -1.0
61 206 1.0
61 207 1.0
62 208 -1.0
62 209 1.0
62 210 1.0
63 211 -1.0
63 212 1.0
63 213 1.0
64 214 -1.0
64 215 1.0
64 216 1.0
65 217 -1.0
65 218 1.0
65 219 1.0
66 220 -1.0
66 221 1.0
66 222 1.0
67 223 -1.0
67 224 1.0
67 225 1.0
68 30 -1.0
68 226 1.0
68 227 1.0
69 31 -1.0
69 228 1.0
69 229 1.0
70 32 -1.0
70 230 1.0
70 231 1.0
71 33 -1.0
71 232 1.0
71 233 1.0
72 234 -1.0
72 235 1.0
72 236 1.0
73 237 -1.0
73 238 1.0
73 239 1.0
74 240 -1.0
74 241 1.0
74 242 1.0
75 243 -1.0
75 244 1.0
75 245 1.0
76 246 -1.0
76 247 1.0
76 248 1.0
77 249 -1.0
77 250 1.0
77 251 1.0
78 252 -1.0
78 253 1.0
78 254 1.0
79 255 -1.0
79 256 1.0
79 257 1.0
80 258 -1.0
80 259 1.0
80 260 1.0
81 261 -1.0
81 262 1.0
81 263 1.0
82 264 -1.0
82 265 1.0
82 266 1.0
83 267 -1.0
83 268 1.0
83 269 1.0
84 270 -1.0
84 271 1.0
84 272 1.0
85 273 -1.0
85 274 1.0
85 275 1.0
86 276 -1.0
86 277 1.0
86 278 1.0
87 279 -1.0
87 280 1.0
87 281 1.0
88 282 -1.0
88 283 1.0
88 284 1.0
89 285 -1.0
89 286 1.0
89 287 1.0
90 288 -1.0
90 289 1.0
90 290 1.0
91 291 -1.0
91 292 1.0
91 293 1.0
92 294 -1.0
92 295 1.0
92 296 1.0
93 297 -1.0
93 298 1.0
93 299 1.0
94 300 -1.0
94 301 1.0
94 302 1.0
95 303 -1.0
95 304 1.0
95 305 1.0
96 306 -1.0
96 307 1.0
96 308 1.0
97 309 -1.0
97 310 1.0
97 311 1.0
98 312 -1.0
98 313 1.0
98 314 1.0
99 315 -1.0
99 316 1.0
99 317 1.0
100 318 -1.0
100 319 1.0
100 320 1.0
101 321 -1.0
101 322 1.0
101 323 1.0
102 324 -1.0
102 325 1.0
102 326 1.0
103 327 -1.0
103 328 1.0
103 329 1.0
104 330 -1.0
104 331 1.0
104 332 1.0
105 333 -1.0
105 334 1.0
105 335 1.0
106 336 -1.0
106 337 1.0
106 338 1.0
107 339 -1.0
107 340 1.0
107 341 1.0
108 34 -1.0
108 342 1.0
108 343 1.0
109 35 -1.0
109 344 1.0
109 345 1.0
110 36 -1.0
110 346 1.0
110 347 1.0
111 37 -1.0
111 348 1.0
111 349 1.0
112 2 1.0
112 111 -75.0
112 112 -75.0
112 113 -150.0
112 114 -150.0
112 115 -225.0
112 116 -225.0
112 117 -300.0
113 3 1.0
113 227 -75.0
113 228 -75.0
113 229 -150.0
113 230 -150.0
113 231 -225.0
113 232 -225.0
113 233 -300.0
114 4 1.0
114 343 -75.0
114 344 -75.0
114 345 -150.0
114 346 -150.0
114 347 -225.0
114 348 -225.0
114 349 -300.0
115 23 1.0
115 111 -20.53727812
115 112 -20.53727812
115 113 -33.36290673
115 114 -33.36290673
115 115 -44.31265409
115 116 -44.31265409
115 117 -54.19820188
115 350 -54.19820188
116 24 1.0
116 227 -20.53727812
116 228 -20.53727812
116 229 -33.36290673
116 230 -33.36290673
116 231 -44.31265409
116 232 -44.31265409
116 233 -54.19820188
116 351 -54.19820188
117 25 1.0
117 343 -20.53727812
117 344 -20.53727812
117 345 -33.36290673
117 346 -33.36290673
117 347 -44.31265409
117 348 -44.31265409
117 349 -54.19820188
117 352 -54.19820188
118 353 1.0
118 354 1.0
118 355 1.0
118 356 1.0
118 357 1.0
118 358 1.0
118 359 1.0
118 360 1.0
119 361 1.0
119 362 1.0
119 363 1.0
119 364 1.0
119 365 1.0
119 366 1.0
119 367 1.0
119 368 1.0
120 369 1.0
120 370 1.0
120 371 1.0
120 372 1.0
120 373 1.0
120 374 1.0
120 375 1.0
120 376 1.0
121 377 1.0
121 378 1.0
121 379 1.0
121 380 1.0
121 381 1.0
121 382 1.0
121 383 1.0
121 384 1.0
122 385 1.0
122 386 1.0
122 387 1.0
122 388 1.0
122 389 1.0
122 390 1.0
122 391 1.0
122 392 1.0
123 393 1.0
123 394 1.0
123 395 1.0
123 396 1.0
123 397 1.0
123 398 1.0
123 399 1.0
123 400 -1.0
124 401 1.0
124 402 1.0
124 403 1.0
124 404 1.0
124 405 1.0
124 406 1.0
124 407 1.0
124 408 -1.0
125 409 1.0
125 410 1.0
125 411 1.0
125 412 1.0
125 413 1.0
125 414 1.0
125 415 1.0
125 416 -1.0
126 1 -1.0
126 417 1.0
126 418 1.0
126 419 1.0
126 420 1.0
126 421 1.0
126 422 1.0
126 423 1.0
126 424 1.0
127 362 1.0
127 370 1.0
127 378 1.0
127 386 1.0
127 393 1.0
127 401 1.0
127 409 1.0
127 417 1.0
128 354 1.0
128 371 1.0
128 379 1.0
128 387 1.0
128 394 1.0
128 402 1.0
128 410 1.0
128 418 1.0
129 355 1.0
129 363 1.0
129 380 1.0
129 388 1.0
129 395 1.0
129 403 1.0
129 411 1.0
129 419 1.0
130 356 1.0
130 364 1.0
130 372 1.0
130 389 1.0
130 396 1.0
130 404 1.0
130 412 1.0
130 420 1.0
131 357 1.0
131 365 1.0
131 373 1.0
131 381 1.0
131 397 1.0
131 405 1.0
131 413 1.0
131 421 1.0
132 2 -1.0
132 358 1.0
132 366 1.0
132 374 1.0
132 382 1.0
132 390 1.0
132 406 1.0
132 414 1.0
132 422 1.0
133 3 -1.0
133 359 1.0
133 367 1.0
133 375 1.0
133 383 1.0
133 391 1.0
133 398 1.0
133 415 1.0
133 423 1.0
134 4 -1.0
134 360 1.0
134 368 1.0
134 376 1.0
134 384 1.0
134 392 1.0
134 399 1.0
134 407 1.0
134 424 1.0
135 425 1.0
135 426 -1.0
136 426 -1.0
136 427 1.0
137 426 -1.0
137 428 1.0
138 426 -1.0
138 429 1.0
139 426 -1.0
139 430 1.0
140 426 -1.0
140 431 1.0
141 426 -1.0
141 432 1.0
142 426 -1.0
142 433 1.0
143 434 1.0
143 435 -1.0
144 435 -1.0
144 436 1.0
145 435 -1.0
145 437 1.0
146 435 -1.0
146 438 1.0
147 435 -1.0
147 439 1.0
148 435 -1.0
148 440 1.0
149 435 -1.0
149 441 1.0
150 435 -1.0
150 442 1.0
151 443 1.0
151 444 -1.0
152 444 -1.0
152 445 1.0
153 444 -1.0
153 446 1.0
154 444 -1.0
154 447 1.0
155 444 -1.0
155 448 1.0
156 444 -1.0
156 449 1.0
157 444 -1.0
157 450 1.0
158 444 -1.0
158 451 1.0
159 452 1.0
159 453 -1.0
160 453 -1.0
160 454 1.0
161 453 -1.0
161 455 1.0
162 453 -1.0
162 456 1.0
163 453 -1.0
163 457 1.0
164 453 -1.0
164 458 1.0
165 453 -1.0
165 459 1.0
166 453 -1.0
166 460 1.0
167 461 1.0
167 462 -1.0
168 462 -1.0
168 463 1.0
169 462 -1.0
169 464 1.0
170 462 -1.0
170 465 1.0
171 462 -1.0
171 466 1.0
172 462 -1.0
172 467 1.0
173 462 -1.0
173 468 1.0
174 462 -1.0
174 469 1.0
175 470 1.0
175 471 -1.0
176 471 -1.0
176 472 1.0
177 471 -1.0
177 473 1.0
178 471 -1.0
178 474 1.0
179 471 -1.0
179 475 1.0
180 471 -1.0
180 476 1.0
181 471 -1.0
181 477 1.0
182 471 -1.0
182 478 1.0
183 479 1.0
183 480 -1.0
184 480 -1.0
184 481 1.0
185 480 -1.0
185 482 1.0
186 480 -1.0
186 483 1.0
187 480 -1.0
187 484 1.0
188 480 -1.0
188 485 1.0
189 480 -1.0
189 486 1.0
190 480 -1.0
190 487 1.0
191 488 1.0
191 489 -1.0
192 489 -1.0
192 490 1.0
193 489 -1.0
193 491 1.0
194 489 -1.0
194 492 1.0
195 489 -1.0
195 493 1.0
196 489 -1.0
196 494 1.0
197 489 -1.0
197 495 1.0
198 489 -1.0
198 496 1.0
199 497 1.0
199 498 -1.0
200 498 -1.0
200 499 1.0
201 498 -1.0
201 500 1.0
202 498 -1.0
202 501 1.0
203 498 -1.0
203 502 1.0
204 498 -1.0
204 503 1.0
205 498 -1.0
205 504 1.0
206 498 -1.0
206 505 1.0
207 506 1.0
207 507 -1.0
208 507 -1.0
208 508 1.0
209 507 -1.0
209 509 1.0
210 507 -1.0
210 510 1.0
211 507 -1.0
211 511 1.0
212 507 -1.0
212 512 1.0
213 507 -1.0
213 513 1.0
214 507 -1.0
214 514 1.0
215 515 1.0
215 516 -1.0
216 516 -1.0
216 517 1.0
217 516 -1.0
217 518 1.0
218 516 -1.0
218 519 1.0
219 516 -1.0
219 520 1.0
220 516 -1.0
220 521 1.0
221 516 -1.0
221 522 1.0
222 516 -1.0
222 523 1.0
223 524 1.0
223 525 -1.0
224 525 -1.0
224 526 1.0
225 525 -1.0
225 527 1.0
226 525 -1.0
226 528 1.0
227 525 -1.0
227 529 1.0
228 525 -1.0
228 530 1.0
229 525 -1.0
229 531 1.0
230 525 -1.0
230 532 1.0
231 533 1.0
231 534 -1.0
232 534 -1.0
232 535 1.0
233 534 -1.0
233 536 1.0
234 534 -1.0
234 537 1.0
235 534 -1.0
235 538 1.0
236 534 -1.0
236 539 1.0
237 534 -1.0
237 540 1.0
238 534 -1.0
238 541 1.0
239 542 1.0
239 543 -1.0
240 543 -1.0
240 544 1.0
241 543 -1.0
241 545 1.0
242 543 -1.0
242 546 1.0
243 543 -1.0
243 547 1.0
244 543 -1.0
244 548 1.0
245 543 -1.0
245 549 1.0
246 543 -1.0
246 550 1.0
247 551 1.0
247 552 -1.0
248 552 -1.0
248 553 1.0
249 552 -1.0
249 554 1.0
250 552 -1.0
250 555 1.0
251 552 -1.0
251 556 1.0
252 552 -1.0
252 557 1.0
253 552 -1.0
253 558 1.0
254 552 -1.0
254 559 1.0
255 560 1.0
255 561 -1.0
256 561 -1.0
256 562 1.0
257 561 -1.0
257 563 1.0
258 561 -1.0
258 564 1.0
259 561 -1.0
259 565 1.0
260 561 -1.0
260 566 1.0
261 561 -1.0
261 567 1.0
262 561 -1.0
262 568 1.0
263 569 1.0
263 570 -1.0
264 570 -1.0
264 571 1.0
265 570 -1.0
265 572 1.0
266 570 -1.0
266 573 1.0
267 570 -1.0
267 574 1.0
268 570 -1.0
268 575 1.0
269 570 -1.0
269 576 1.0
270 570 -1.0
270 577 1.0
271 578 1.0
271 579 -1.0
272 579 -1.0
272 580 1.0
273 579 -1.0
273 581 1.0
274 579 -1.0
274 582 1.0
275 579 -1.0
275 583 1.0
276 579 -1.0
276 584 1.0
277 579 -1.0
277 585 1.0
278 579 -1.0
278 586 1.0
279 587 1.0
279 588 -1.0
280 588 -1.0
280 589 1.0
281 588 -1.0
281 590 1.0
282 588 -1.0
282 591 1.0
283 588 -1.0
283 592 1.0
284 588 -1.0
284 593 1.0
285 588 -1.0
285 594 1.0
286 588 -1.0
286 595 1.0
287 596 1.0
287 597 -1.0
288 597 -1.0
288 598 1.0
289 597 -1.0
289 599 1.0
290 597 -1.0
290 600 1.0
291 597 -1.0
291 601 1.0
292 597 -1.0
292 602 1.0
293 597 -1.0
293 603 1.0
294 597 -1.0
294 604 1.0
295 605 1.0
295 606 -1.0
296 606 -1.0
296 607 1.0
297 606 -1.0
297 608 1.0
298 606 -1.0
298 609 1.0
299 606 -1.0
299 610 1.0
300 606 -1.0
300 611 1.0
301 606 -1.0
301 612 1.0
302 606 -1.0
302 613 1.0
303 1 -1.0
303 353 1.0
303 361 1.0
303 369 1.0
303 377 1.0
303 385 1.0
304 426 50.0
304 614 -50.0
305 435 60.0
305 615 -60.0
306 444 70.0
306 616 -70.0
307 453 80.0
307 617 -80.0
308 489 50.0
308 618 -50.0
309 498 60.0
309 619 -60.0
310 507 70.0
310 620 -70.0
311 516 80.0
311 621 -80.0
312 552 50.0
312 622 -50.0
313 561 60.0
313 623 -60.0
314 570 70.0
314 624 -70.0
315 579 80.0
315 625 -80.0
316 2 1.0
316 400 -1.0
317 3 1.0
317 408 -1.0
318 4 1.0
318 416 -1.0
319 462 1.0
319 626 -0.05
320 471 1.0
320 627 -1.0
321 480 1.0
321 628 -1.0
322 525 1.0
322 629 -1.0
323 534 1.0
323 630 -1.0
324 543 1.0
324 631 -0.05
325 588 1.0
325 632 -1.0
326 597 1.0
326 633 -0.05
327 606 1.0
327 634 -1.0
328 362 25.0
328 614 -50.0
329 370 25.0
329 615 -60.0
330 378 25.0
330 616 -70.0
331 386 25.0
331 617 -80.0
332 362 37.5
332 618 -50.0
333 370 37.5
333 619 -60.0
334 378 37.5
334 620 -70.0
335 386 37.5
335 621 -80.0
336 362 25.0
336 622 -50.0
337 370 25.0
337 623 -60.0
338 378 25.0
338 624 -70.0
339 386 25.0
339 625 -80.0
340 393 25.0
341 401 25.0
342 409 25.0
343 417 25.0
344 393 37.5
345 401 37.5
346 409 37.5
347 417 37.5
348 393 25.0
349 401 25.0
350 409 25.0
351 417 25.0
1.79769313486232E+308 # value for infinity
0.0 # default left-hand-side value
27 # number of non-default left-hand-sides
1 1.0
2 1.0
3 1.0
118 40.0
119 50.0
120 60.0
121 70.0
122 80.0
127 40.0
128 50.0
129 60.0
130 70.0
131 80.0
304 1000.0
305 1000.0
306 2000.0
307 1000.0
308 1000.0
309 1000.0
310 2000.0
311 1000.0
312 1000.0
313 1000.0
314 2000.0
352 -6000.0
353 -6500.0
354 -5000.0
0.0 # default right-hand-side value
30 # number of non-default right-hand-sides
1 1.0
2 1.0
3 1.0
115 1.79769313486232E+308
116 1.79769313486232E+308
117 1.79769313486232E+308
118 40.0
119 50.0
120 60.0
121 70.0
122 80.0
127 40.0
128 50.0
129 60.0
130 70.0
131 80.0
304 1000.0
305 1000.0
306 2000.0
307 1000.0
308 1000.0
309 1000.0
310 2000.0
311 1000.0
312 1000.0
313 1000.0
314 2000.0
352 -6000.0
353 -6500.0
354 -5000.0
0.0 # default variable lower bound value
0 # number of non-default variable lower bounds
1.0 # default variable upper bound value
307 # number of non-default variable upper bounds
1 300.0
2 300.0
3 300.0
4 300.0
5 78.57142857
6 78.57142857
7 78.57142857
8 78.57142857
9 78.57142857
10 78.57142857
11 78.57142857
12 78.57142857
13 78.57142857
14 78.57142857
15 78.57142857
16 78.57142857
17 78.57142857
18 78.57142857
19 78.57142857
20 10.0
21 10.0
22 10.0
23 54.19820188
24 54.19820188
25 54.19820188
353 300.0
354 300.0
355 300.0
356 300.0
357 300.0
358 300.0
359 300.0
360 300.0
361 300.0
362 300.0
363 300.0
364 300.0
365 300.0
366 300.0
367 300.0
368 300.0
369 300.0
370 300.0
371 300.0
372 300.0
373 300.0
374 300.0
375 300.0
376 300.0
377 300.0
378 300.0
379 300.0
380 300.0
381 300.0
382 300.0
383 300.0
384 300.0
385 300.0
386 300.0
387 300.0
388 300.0
389 300.0
390 300.0
391 300.0
392 300.0
393 300.0
394 300.0
395 300.0
396 300.0
397 300.0
398 300.0
399 300.0
400 300.0
401 300.0
402 300.0
403 300.0
404 300.0
405 300.0
406 300.0
407 300.0
408 300.0
409 300.0
410 300.0
411 300.0
412 300.0
413 300.0
414 300.0
415 300.0
416 300.0
417 300.0
418 300.0
419 300.0
420 300.0
421 300.0
422 300.0
423 300.0
424 300.0
425 78.57142857
426 70.0
427 78.57142857
428 78.57142857
429 78.57142857
430 78.57142857
431 78.57142857
432 78.57142857
433 78.57142857
434 78.57142857
435 66.66666667
436 78.57142857
437 78.57142857
438 78.57142857
439 78.57142857
440 78.57142857
441 78.57142857
442 78.57142857
443 78.57142857
444 78.57142857
445 78.57142857
446 78.57142857
447 78.57142857
448 78.57142857
449 78.57142857
450 78.57142857
451 78.57142857
452 78.57142857
453 37.5
454 78.57142857
455 78.57142857
456 78.57142857
457 78.57142857
458 78.57142857
459 78.57142857
460 78.57142857
461 78.57142857
462 3.928571429
463 78.57142857
464 78.57142857
465 78.57142857
466 78.57142857
467 78.57142857
468 78.57142857
469 78.57142857
470 78.57142857
471 78.57142857
472 78.57142857
473 78.57142857
474 78.57142857
475 78.57142857
476 78.57142857
477 78.57142857
478 78.57142857
479 78.57142857
480 78.57142857
481 78.57142857
482 78.57142857
483 78.57142857
484 78.57142857
485 78.57142857
486 78.57142857
487 78.57142857
488 78.57142857
489 70.0
490 78.57142857
491 78.57142857
492 78.57142857
493 78.57142857
494 78.57142857
495 78.57142857
496 78.57142857
497 78.57142857
498 66.66666667
499 78.57142857
500 78.57142857
501 78.57142857
502 78.57142857
503 78.57142857
504 78.57142857
505 78.57142857
506 78.57142857
507 78.57142857
508 78.57142857
509 78.57142857
510 78.57142857
511 78.57142857
512 78.57142857
513 78.57142857
514 78.57142857
515 78.57142857
516 37.5
517 78.57142857
518 78.57142857
519 78.57142857
520 78.57142857
521 78.57142857
522 78.57142857
523 78.57142857
524 78.57142857
525 78.57142857
526 78.57142857
527 78.57142857
528 78.57142857
529 78.57142857
530 78.57142857
531 78.57142857
532 78.57142857
533 78.57142857
534 78.57142857
535 78.57142857
536 78.57142857
537 78.57142857
538 78.57142857
539 78.57142857
540 78.57142857
541 78.57142857
542 78.57142857
543 3.928571429
544 78.57142857
545 78.57142857
546 78.57142857
547 78.57142857
548 78.57142857
549 78.57142857
550 78.57142857
551 78.57142857
552 70.0
553 78.57142857
554 78.57142857
555 78.57142857
556 78.57142857
557 78.57142857
558 78.57142857
559 78.57142857
560 78.57142857
561 66.66666667
562 78.57142857
563 78.57142857
564 78.57142857
565 78.57142857
566 78.57142857
567 78.57142857
568 78.57142857
569 78.57142857
570 78.57142857
571 78.57142857
572 78.57142857
573 78.57142857
574 78.57142857
575 78.57142857
576 78.57142857
577 78.57142857
578 78.57142857
579 25.0
580 78.57142857
581 78.57142857
582 78.57142857
583 78.57142857
584 78.57142857
585 78.57142857
586 78.57142857
587 78.57142857
588 78.57142857
589 78.57142857
590 78.57142857
591 78.57142857
592 78.57142857
593 78.57142857
594 78.57142857
595 78.57142857
596 78.57142857
597 3.928571429
598 78.57142857
599 78.57142857
600 78.57142857
601 78.57142857
602 78.57142857
603 78.57142857
604 78.57142857
605 78.57142857
606 78.57142857
607 78.57142857
608 78.57142857
609 78.57142857
610 78.57142857
611 78.57142857
612 78.57142857
613 78.57142857
614 50.0
615 50.0
616 50.0
617 25.0
618 50.0
619 50.0
620 50.0
621 25.0
622 50.0
623 50.0
624 50.0
625 25.0
626 78.57142857
627 78.57142857
628 78.57142857
629 78.57142857
630 78.57142857
631 78.57142857
632 78.57142857
633 78.57142857
634 78.57142857
0 # default variable type
108 # number of non-default variable types
26 1
27 1
28 1
29 1
30 1
31 1
32 1
33 1
34 1
35 1
36 1
37 1
38 1
41 1
44 1
47 1
50 1
53 1
56 1
59 1
62 1
65 1
68 1
71 1
74 1
77 1
80 1
83 1
86 1
89 1
92 1
95 1
98 1
101 1
104 1
107 1
118 1
121 1
124 1
127 1
130 1
133 1
136 1
139 1
142 1
145 1
148 1
151 1
154 1
157 1
160 1
163 1
166 1
169 1
172 1
175 1
178 1
181 1
184 1
187 1
190 1
193 1
196 1
199 1
202 1
205 1
208 1
211 1
214 1
217 1
220 1
223 1
234 1
237 1
240 1
243 1
246 1
249 1
252 1
255 1
258 1
261 1
264 1
267 1
270 1
273 1
276 1
279 1
282 1
285 1
288 1
291 1
294 1
297 1
300 1
303 1
306 1
309 1
312 1
315 1
318 1
321 1
324 1
327 1
330 1
333 1
336 1
339 1
0.0 # default variable primal value in starting point
0 # number of non-default variable primal values in starting point
0.0 # default constraint dual value in starting point
0 # number of non-default constraint dual values in starting point
0.0 # default variable bound dual value in starting point
0 # number of non-default variable bound dual values in starting point
0 # number of non-default variable names
0 # number of non-default constraint names
